;; produced by z3_gnatprove.drv ;;
(set-info :smt-lib-version 2.5)
(set-info :source |VC generated by SPARK 2014|)
(set-info :category industrial)
(set-info :status unknown)
;;; generated by SMT-LIB2 driver
;;; SMT-LIB2 driver: bit-vectors, common part
;;; SMT-LIB2: integer arithmetic
(declare-sort string 0)

(declare-datatypes () ((tuple0 (Tuple0))))
(declare-sort us_private 0)

(declare-fun private__bool_eq (us_private us_private) Bool)

(declare-const us_null_ext__ us_private)

(declare-sort us_type_of_heap 0)

(declare-datatypes ()
((us_type_of_heap__ref
 (us_type_of_heap__refqtmk (us_type_of_heap__content us_type_of_heap)))))
(declare-sort us_image 0)

(declare-datatypes () ((int__ref (int__refqtmk (int__content Int)))))
(declare-datatypes () ((bool__ref (bool__refqtmk (bool__content Bool)))))
(declare-datatypes ()
((us_fixed__ref (us_fixed__refqtmk (us_fixed__content Int)))))
(declare-datatypes () ((real__ref (real__refqtmk (real__content Real)))))
(declare-datatypes ()
((us_private__ref (us_private__refqtmk (us_private__content us_private)))))
(define-fun int__ref___projection ((a int__ref)) Int (int__content a))

(define-fun us_fixed__ref___projection ((a us_fixed__ref)) Int (us_fixed__content
                                                               a))

(define-fun bool__ref___projection ((a bool__ref)) Bool (bool__content a))

(define-fun real__ref___projection ((a real__ref)) Real (real__content a))

(define-fun us_private__ref___projection ((a us_private__ref)) us_private 
  (us_private__content a))

(define-fun in_range ((x Int)) Bool (or (= x 0) (= x 1)))

(declare-fun attr__ATTRIBUTE_IMAGE (Bool) us_image)

(declare-fun attr__ATTRIBUTE_VALUE__pre_check (us_image) Bool)

(declare-fun attr__ATTRIBUTE_VALUE (us_image) Bool)

(declare-sort integer 0)

(declare-fun integerqtint (integer) Int)

;; integer'axiom
  (assert
  (forall ((i integer))
  (and (<= (- 2147483648) (integerqtint i)) (<= (integerqtint i) 2147483647))))

(define-fun in_range1 ((x Int)) Bool (and (<= (- 2147483648) x)
                                     (<= x 2147483647)))

(declare-fun attr__ATTRIBUTE_IMAGE1 (Int) us_image)

(declare-fun attr__ATTRIBUTE_VALUE__pre_check1 (us_image) Bool)

(declare-fun attr__ATTRIBUTE_VALUE1 (us_image) Int)

(declare-fun user_eq (integer integer) Bool)

(declare-const dummy integer)

(declare-datatypes ()
((integer__ref (integer__refqtmk (integer__content integer)))))
(define-fun integer__ref_integer__content__projection ((a integer__ref)) integer 
  (integer__content a))

(declare-sort positive 0)

(declare-fun positiveqtint (positive) Int)

;; positive'axiom
  (assert
  (forall ((i positive))
  (and (<= 1 (positiveqtint i)) (<= (positiveqtint i) 2147483647))))

(define-fun in_range2 ((x Int)) Bool (and (<= 1 x) (<= x 2147483647)))

(declare-fun attr__ATTRIBUTE_IMAGE2 (Int) us_image)

(declare-fun attr__ATTRIBUTE_VALUE__pre_check2 (us_image) Bool)

(declare-fun attr__ATTRIBUTE_VALUE2 (us_image) Int)

(declare-fun user_eq1 (positive positive) Bool)

(declare-const dummy1 positive)

(declare-datatypes ()
((positive__ref (positive__refqtmk (positive__content positive)))))
(define-fun positive__ref_positive__content__projection ((a positive__ref)) positive 
  (positive__content a))

(define-fun dynamic_invariant ((temp___expr_46 Int) (temp___is_init_42 Bool)
  (temp___skip_constant_43 Bool) (temp___do_toplevel_44 Bool)
  (temp___do_typ_inv_45 Bool)) Bool (=>
                                    (or (= temp___is_init_42 true)
                                    (<= 1 2147483647)) (in_range2
                                    temp___expr_46)))

(define-fun to_rep ((x positive)) Int (positiveqtint x))

(declare-fun of_rep (Int) positive)

;; inversion_axiom
  (assert
  (forall ((x positive))
  (! (= (of_rep (to_rep x)) x) :pattern ((to_rep x)) )))

;; range_axiom
  (assert
  (forall ((x positive)) (! (in_range2 (to_rep x)) :pattern ((to_rep x)) )))

;; coerce_axiom
  (assert
  (forall ((x Int))
  (! (=> (in_range2 x) (= (to_rep (of_rep x)) x)) :pattern ((to_rep
                                                            (of_rep x))) )))

(declare-sort character 0)

(define-fun in_range3 ((x Int)) Bool (and (<= 0 x) (<= x 255)))

(declare-fun attr__ATTRIBUTE_IMAGE3 (Int) us_image)

(declare-fun attr__ATTRIBUTE_VALUE__pre_check3 (us_image) Bool)

(declare-fun attr__ATTRIBUTE_VALUE3 (us_image) Int)

(declare-fun user_eq2 (character character) Bool)

(declare-const dummy2 character)

(declare-datatypes ()
((character__ref (character__refqtmk (character__content character)))))
(define-fun character__ref_character__content__projection ((a character__ref)) character 
  (character__content a))

(declare-fun to_rep1 (character) Int)

(declare-fun of_rep1 (Int) character)

;; inversion_axiom
  (assert
  (forall ((x character))
  (! (= (of_rep1 (to_rep1 x)) x) :pattern ((to_rep1 x)) )))

;; range_axiom
  (assert
  (forall ((x character)) (! (in_range3
  (to_rep1 x)) :pattern ((to_rep1 x)) )))

;; coerce_axiom
  (assert
  (forall ((x Int))
  (! (=> (in_range3 x) (= (to_rep1 (of_rep1 x)) x)) :pattern ((to_rep1
                                                              (of_rep1 x))) )))

(declare-datatypes ()
((map__ref (map__refqtmk (map__content (Array Int character))))))
(declare-fun slide ((Array Int character) Int Int) (Array Int character))

;; slide_eq
  (assert
  (forall ((a (Array Int character)))
  (forall ((first Int))
  (! (= (slide a first first) a) :pattern ((slide a first first)) ))))

;; slide_def
  (assert
  (forall ((a (Array Int character)))
  (forall ((old_first Int))
  (forall ((new_first Int))
  (forall ((i Int))
  (! (= (select (slide a old_first new_first) i) (select a (- i (- new_first old_first)))) :pattern ((select 
  (slide a old_first new_first) i)) ))))))

(define-fun bool_eq ((a (Array Int character)) (a__first Int) (a__last Int)
  (b (Array Int character)) (b__first Int)
  (b__last Int)) Bool (ite (and
                           (ite (<= a__first a__last)
                           (and (<= b__first b__last)
                           (= (- a__last a__first) (- b__last b__first)))
                           (< b__last b__first))
                           (forall ((temp___idx_91 Int))
                           (=>
                           (and (<= a__first temp___idx_91)
                           (<= temp___idx_91 a__last))
                           (= (to_rep1 (select a temp___idx_91)) (to_rep1
                                                                 (select b (+ (- b__first a__first) temp___idx_91)))))))
                      true false))

;; bool_eq_rev
  (assert
  (forall ((a (Array Int character)) (b (Array Int character)))
  (forall ((a__first Int) (a__last Int) (b__first Int) (b__last Int))
  (=> (= (bool_eq b b__first b__last a a__first a__last) true)
  (and
  (ite (<= a__first a__last)
  (and (<= b__first b__last) (= (- a__last a__first) (- b__last b__first)))
  (< b__last b__first))
  (forall ((temp___idx_91 Int))
  (=> (and (<= a__first temp___idx_91) (<= temp___idx_91 a__last))
  (= (to_rep1 (select a temp___idx_91)) (to_rep1
                                        (select b (+ (- b__first a__first) temp___idx_91)))))))))))

(define-fun dynamic_invariant1 ((temp___expr_18 Int) (temp___is_init_14 Bool)
  (temp___skip_constant_15 Bool) (temp___do_toplevel_16 Bool)
  (temp___do_typ_inv_17 Bool)) Bool (=>
                                    (or (= temp___is_init_14 true)
                                    (<= (- 2147483648) 2147483647))
                                    (in_range1 temp___expr_18)))

(define-fun to_rep2 ((x integer)) Int (integerqtint x))

(declare-fun of_rep2 (Int) integer)

;; inversion_axiom
  (assert
  (forall ((x integer))
  (! (= (of_rep2 (to_rep2 x)) x) :pattern ((to_rep2 x)) )))

;; range_axiom
  (assert
  (forall ((x integer)) (! (in_range1 (to_rep2 x)) :pattern ((to_rep2 x)) )))

;; coerce_axiom
  (assert
  (forall ((x Int))
  (! (=> (in_range1 x) (= (to_rep2 (of_rep2 x)) x)) :pattern ((to_rep2
                                                              (of_rep2 x))) )))

(declare-sort t 0)

(declare-fun first (t) integer)

(declare-fun last (t) integer)

(declare-fun mk (Int Int) t)

;; mk_def
  (assert
  (forall ((f Int) (l Int))
  (! (=> (in_range1 f)
     (=> (in_range1 l)
     (and (= (to_rep2 (first (mk f l))) f) (= (to_rep2 (last (mk f l))) l)))) :pattern (
  (mk f l)) )))

(define-fun dynamic_property ((range_first Int) (range_last Int) (low Int)
  (high Int)) Bool (and (in_range1 low)
                   (and (in_range1 high)
                   (=> (<= low high) (and (in_range2 low) (in_range2 high))))))

(declare-datatypes () ((us_t (us_tqtmk (elts (Array Int character))(rt t)))))
(define-fun to_array ((a us_t)) (Array Int character) (elts a))

(define-fun of_array ((a (Array Int character)) (f Int)
  (l Int)) us_t (us_tqtmk a (mk f l)))

(define-fun first1 ((a us_t)) Int (to_rep2 (first (rt a))))

(define-fun last1 ((a us_t)) Int (to_rep2 (last (rt a))))

(define-fun length ((a us_t)) Int (ite (<= (first1 a) (last1 a))
                                  (+ (- (last1 a) (first1 a)) 1) 0))

(declare-const value__size Int)

(declare-const object__size Int)

(declare-const component__size Int)

(declare-const alignment Int)

;; value__size_axiom
  (assert (<= 0 value__size))

;; object__size_axiom
  (assert (<= 0 object__size))

;; component__size_axiom
  (assert (<= 0 component__size))

;; alignment_axiom
  (assert (<= 0 alignment))

(define-fun bool_eq1 ((x us_t)
  (y us_t)) Bool (bool_eq (elts x) (to_rep2 (first (rt x)))
                 (to_rep2 (last (rt x))) (elts y) (to_rep2 (first (rt y)))
                 (to_rep2 (last (rt y)))))

(declare-fun user_eq3 (us_t us_t) Bool)

(declare-const dummy3 us_t)

(declare-datatypes ()
((string____ref (string____refqtmk (string____content us_t)))))
(define-fun string____ref_string____content__projection ((a string____ref)) us_t 
  (string____content a))

(declare-datatypes () ((text__ref (text__refqtmk (text__content us_t)))))
(define-fun text__ref_text__content__projection ((a text__ref)) us_t 
  (text__content a))

(declare-fun match_at (us_t us_t Int) Bool)

(declare-fun match_at__function_guard (Bool us_t us_t Int) Bool)

(declare-fun partial_match_at (us_t us_t Int Int) Bool)

(declare-fun partial_match_at__function_guard (Bool us_t us_t Int Int) Bool)

(define-fun dynamic_invariant2 ((temp___expr_165 us_t)
  (temp___is_init_161 Bool) (temp___skip_constant_162 Bool)
  (temp___do_toplevel_163 Bool)
  (temp___do_typ_inv_164 Bool)) Bool (and
                                     (=>
                                     (not (= temp___skip_constant_162 true))
                                     (dynamic_property 1 2147483647
                                     (first1 temp___expr_165)
                                     (last1 temp___expr_165)))
                                     (=> (= temp___do_toplevel_163 true)
                                     (=> (= temp___is_init_161 true)
                                     (= (first1 temp___expr_165) 1)))))

(define-fun dynamic_predicate ((temp___168 us_t)) Bool (= (first1 temp___168) 1))

;; match_at__post_axiom
  (assert true)

;; match_at__def_axiom
  (assert
  (forall ((needle us_t) (haystack us_t))
  (forall ((loc Int))
  (! (and
     (forall ((needle1 us_t) (haystack1 us_t) (loc1 Int))
     (partial_match_at__function_guard
     (partial_match_at needle1 haystack1 loc1 (length needle1)) needle1
     haystack1 loc1 (length needle1)))
     (= (= (match_at needle haystack loc) true)
     (and (<= (- loc 1) (- (length haystack) (length needle)))
     (= (partial_match_at needle haystack loc (length needle)) true)))) :pattern (
  (match_at needle haystack loc)) ))))

(declare-datatypes ()
((map__ref1 (map__refqtmk1 (map__content1 (Array Int positive))))))
(declare-fun slide1 ((Array Int positive) Int Int) (Array Int positive))

;; slide_eq
  (assert
  (forall ((a (Array Int positive)))
  (forall ((first2 Int))
  (! (= (slide1 a first2 first2) a) :pattern ((slide1 a first2 first2)) ))))

;; slide_def
  (assert
  (forall ((a (Array Int positive)))
  (forall ((old_first Int))
  (forall ((new_first Int))
  (forall ((i Int))
  (! (= (select (slide1 a old_first new_first) i) (select a (- i (- new_first old_first)))) :pattern ((select 
  (slide1 a old_first new_first) i)) ))))))

(define-fun bool_eq2 ((a (Array Int positive)) (a__first Int) (a__last Int)
  (b (Array Int positive)) (b__first Int)
  (b__last Int)) Bool (ite (and
                           (ite (<= a__first a__last)
                           (and (<= b__first b__last)
                           (= (- a__last a__first) (- b__last b__first)))
                           (< b__last b__first))
                           (forall ((temp___idx_158 Int))
                           (=>
                           (and (<= a__first temp___idx_158)
                           (<= temp___idx_158 a__last))
                           (= (to_rep (select a temp___idx_158)) (to_rep
                                                                 (select b (+ (- b__first a__first) temp___idx_158)))))))
                      true false))

;; bool_eq_rev
  (assert
  (forall ((a (Array Int positive)) (b (Array Int positive)))
  (forall ((a__first Int) (a__last Int) (b__first Int) (b__last Int))
  (=> (= (bool_eq2 b b__first b__last a a__first a__last) true)
  (and
  (ite (<= a__first a__last)
  (and (<= b__first b__last) (= (- a__last a__first) (- b__last b__first)))
  (< b__last b__first))
  (forall ((temp___idx_158 Int))
  (=> (and (<= a__first temp___idx_158) (<= temp___idx_158 a__last))
  (= (to_rep (select a temp___idx_158)) (to_rep
                                        (select b (+ (- b__first a__first) temp___idx_158)))))))))))

(declare-const needle us_t)

(declare-const attr__ATTRIBUTE_ADDRESS Int)

(declare-const haystack us_t)

(declare-const attr__ATTRIBUTE_ADDRESS1 Int)

(declare-const attr__ATTRIBUTE_ADDRESS2 Int)

(declare-const attr__ATTRIBUTE_ADDRESS3 Int)

(declare-const attr__ATTRIBUTE_ADDRESS4 Int)

(declare-const attr__ATTRIBUTE_ADDRESS5 Int)

(declare-const attr__ATTRIBUTE_ADDRESS6 Int)

(declare-const attr__ATTRIBUTE_ADDRESS7 Int)

(declare-const attr__ATTRIBUTE_ADDRESS8 Int)

(declare-const attr__ATTRIBUTE_ADDRESS9 Int)

(declare-datatypes () ((t55b__ref (t55b__refqtmk (t55b__content us_t)))))
(define-fun t55b__ref_t55b__content__projection ((a t55b__ref)) us_t 
  (t55b__content a))

(define-fun dynamic_property1 ((first_int Int) (last_int Int)
  (x Int)) Bool (and (<= first_int x) (<= x last_int)))

(declare-fun attr__ATTRIBUTE_IMAGE4 (Int) us_image)

(declare-fun attr__ATTRIBUTE_VALUE__pre_check4 (us_image) Bool)

(declare-fun attr__ATTRIBUTE_VALUE4 (us_image) Int)

(declare-fun user_eq4 (integer integer) Bool)

(declare-const dummy4 integer)

(declare-datatypes () ((t60b__ref (t60b__refqtmk (t60b__content integer)))))
(define-fun t60b__ref_t60b__content__projection ((a t60b__ref)) integer 
  (t60b__content a))

(declare-sort natural 0)

(declare-fun naturalqtint (natural) Int)

;; natural'axiom
  (assert
  (forall ((i natural))
  (and (<= 0 (naturalqtint i)) (<= (naturalqtint i) 2147483647))))

(define-fun in_range4 ((x Int)) Bool (and (<= 0 x) (<= x 2147483647)))

(declare-fun attr__ATTRIBUTE_IMAGE5 (Int) us_image)

(declare-fun attr__ATTRIBUTE_VALUE__pre_check5 (us_image) Bool)

(declare-fun attr__ATTRIBUTE_VALUE5 (us_image) Int)

(declare-fun user_eq5 (natural natural) Bool)

(declare-const dummy5 natural)

(declare-datatypes ()
((natural__ref (natural__refqtmk (natural__content natural)))))
(define-fun natural__ref_natural__content__projection ((a natural__ref)) natural 
  (natural__content a))

(define-fun dynamic_invariant3 ((temp___expr_39 Int) (temp___is_init_35 Bool)
  (temp___skip_constant_36 Bool) (temp___do_toplevel_37 Bool)
  (temp___do_typ_inv_38 Bool)) Bool (=>
                                    (or (= temp___is_init_35 true)
                                    (<= 0 2147483647)) (in_range4
                                    temp___expr_39)))

(define-fun dynamic_invariant4 ((temp___expr_74 Int) (temp___is_init_70 Bool)
  (temp___skip_constant_71 Bool) (temp___do_toplevel_72 Bool)
  (temp___do_typ_inv_73 Bool)) Bool (=>
                                    (or (= temp___is_init_70 true)
                                    (<= 0 255)) (in_range3 temp___expr_74)))

;; partial_match_at__post_axiom
  (assert true)

;; partial_match_at__def_axiom
  (assert
  (forall ((needle1 us_t) (haystack1 us_t))
  (forall ((loc Int) (len Int))
  (! (= (= (partial_match_at needle1 haystack1 loc len) true)
     (forall ((i Int))
     (=> (and (<= 1 i) (<= i len))
     (= (to_rep1 (select (to_array needle1) i)) (to_rep1
                                                (select (to_array haystack1) (+ loc (- i 1)))))))) :pattern (
  (partial_match_at needle1 haystack1 loc len)) ))))

(declare-const bad_shift (Array Int positive))

(declare-const i Int)

;; Assume
  (assert (dynamic_invariant2 needle true false true true))

;; Assume
  (assert (dynamic_invariant2 haystack true false true true))

;; Assume
  (assert
  (and (and (< (length needle) 2147483647) (< (length haystack) 2147483646))
  (let ((temp___412 (length needle)))
  (and (<= 1 temp___412) (<= temp___412 (length haystack))))))

;; Assume
  (assert true)

;; Assume
  (assert true)

;; Assume
  (assert true)

;; Assume
  (assert (dynamic_invariant i false false true true))

(define-fun o () us_t needle)

(declare-const bad_shift1 (Array Int positive))

;; H
  (assert
  (forall ((c Int))
  (=> (and (<= 0 c) (<= c 255))
  (let ((temp___210 (to_rep (select bad_shift1 c))))
  (and (<= 1 temp___210) (<= temp___210 (+ (length o) 1)))))))

;; H
  (assert
  (forall ((c Int))
  (=> (and (<= 0 c) (<= c 255))
  (ite (= (to_rep (select bad_shift1 c)) (+ (length o) 1))
  (forall ((k Int))
  (=> (and (<= (first1 o) k) (<= k (last1 o)))
  (not (= c (to_rep1 (select (to_array o) k))))))
  (and
  (= (to_rep1
     (select (to_array o) (+ (- (length o) (to_rep (select bad_shift1 c))) 1))) c)
  (forall ((k Int))
  (=>
  (and (<= (+ (- (length o) (to_rep (select bad_shift1 c))) 2) k)
  (<= k (last1 o))) (not (= (to_rep1 (select (to_array o) k)) c)))))))))

;; H
  (assert true)

(declare-const i1 Int)

;; H
  (assert (= i1 1))

(define-fun o1 () Int (length needle))

;; Ensures
  (assert (in_range1 o1))

(define-fun o2 () Int (length haystack))

;; Ensures
  (assert (in_range1 o2))

(define-fun o3 () Int (- o2 o1))

;; Ensures
  (assert (in_range1 o3))

(define-fun o4 () Int (+ o3 1))

;; Ensures
  (assert (in_range1 o4))

;; H
  (assert (<= i1 o4))

(declare-const r52b Int)

;; H
  (assert (= r52b i1))

;; Assume
  (assert (dynamic_invariant r52b true false true true))

(define-fun o5 () Int (- (last1 needle) 1))

;; Ensures
  (assert (in_range1 o5))

(define-fun o6 () Int (+ i1 o5))

;; Ensures
  (assert (in_range1 o6))

(declare-const r53b Int)

;; H
  (assert (= r53b o6))

;; Assume
  (assert (dynamic_invariant1 r53b true false true true))

;; Assert
  (assert
  (=> (<= r52b r53b)
  (and (and (<= (first1 haystack) r52b) (<= r52b (last1 haystack)))
  (and (<= (first1 haystack) r53b) (<= r53b (last1 haystack))))))

(define-fun temp___385 () us_t (of_array (to_array haystack) r52b r53b))

(declare-const spark__branch Bool)

;; H
  (assert
  (= spark__branch (bool_eq (to_array needle) (first1 needle) (last1 needle)
                   (to_array temp___385) (first1 temp___385)
                   (last1 temp___385))))

;; H
  (assert (not (= spark__branch true)))

(define-fun o7 () Int (length needle))

;; Ensures
  (assert (in_range1 o7))

(define-fun o8 () Int (length haystack))

;; Ensures
  (assert (in_range1 o8))

(define-fun o9 () Int (- o8 o7))

;; Ensures
  (assert (in_range1 o9))

(define-fun o10 () Int (+ o9 1))

;; Ensures
  (assert (in_range1 o10))

;; H
  (assert (not (= i1 o10)))

(define-fun o11 () Int (length needle))

;; Ensures
  (assert (in_range1 o11))

(define-fun o12 () Int (+ i1 o11))

;; Ensures
  (assert (in_range1 o12))

;; Assert
  (assert (and (<= (first1 haystack) o12) (<= o12 (last1 haystack))))

(declare-const o13 Int)

;; Ensures
  (assert (= (to_rep1 (select (to_array haystack) o12)) o13))

(declare-const o14 Int)

;; Ensures
  (assert (= (to_rep (select bad_shift1 o13)) o14))

(declare-const shift Int)

;; H
  (assert (= shift o14))

;; Assume
  (assert (dynamic_invariant shift true false true true))

(define-fun o15 () Int (+ i1 1))

;; Ensures
  (assert (in_range1 o15))

(declare-const r58b Int)

;; H
  (assert (= r58b o15))

;; Assume
  (assert (dynamic_invariant1 r58b true false true true))

(define-fun o16 () Int (+ i1 shift))

;; Ensures
  (assert (in_range1 o16))

(declare-const r59b Int)

;; H
  (assert (= r59b (- o16 1)))

;; Assume
  (assert (dynamic_invariant1 r59b true false true true))

(declare-const k Int)

;; H
  (assert
  (forall ((l Int)) (match_at__function_guard (match_at needle haystack l)
  needle haystack l)))

;; H
  (assert
  (forall ((l Int)) (match_at__function_guard (match_at needle haystack l)
  needle haystack l)))

(declare-const k1 Int)

;; H
  (assert (= k1 r58b))

;; H
  (assert
  (ite (= (and (ite (<= r58b k1) true false) (ite (<= k1 r59b) true false)) true)
  (and
  (not
  (= (to_rep1 (select (to_array haystack) (+ i1 (length needle)))) (to_rep1
                                                                   (select 
                                                                   (to_array
                                                                   needle) (+ (- (+ 
                                                                   i1 
                                                                   (length
                                                                   needle)) 
                                                                   k1) 1)))))
  (and
  (forall ((l Int))
  (=> (and (<= 1 l) (<= l k)) (not (= (match_at needle haystack l) true))))
  (and
  (= (and (ite (dynamic_property1 r58b r59b k) true false) (ite (and
                                                                (<= r58b 
                                                                k)
                                                                (<= k 
                                                                r59b))
                                                           true false)) true)
  (= k r59b)))) (= k k1)))

(define-fun o17 () Int (length needle))

;; Ensures
  (assert (in_range1 o17))

(define-fun o18 () Int (length haystack))

;; Ensures
  (assert (in_range1 o18))

(define-fun o19 () Int (- o18 o17))

;; Ensures
  (assert (in_range1 o19))

(declare-const usf Int)

(define-fun o20 () Int (length needle))

(assert
;; defqtvc
 ;; File "string_search.ads", line 56, characters 0-0
  (not (in_range1 o20)))
(check-sat)
